727,548
1045,670
742,791
536,511
762,246
464,-21
626,577
980,-6
593,527
296,467
281,202
727,702
602,909
977,360
996,635
627,300
711,406
469,194
732,731
148,490
342,745
545,139
792,64
681,946
749,273
390,617
751,850
593,420
751,850
563,424
888,438
491,596
1095,471
923,230
